Set parameter TokenServer to value "hpc-licenses.hpcc.usc.edu"
Set parameter TimeLimit to value 3600
Gurobi Optimizer version 9.5.1 build v9.5.1rc2 (linux64)
Thread count: 20 physical cores, 20 logical processors, using up to 20 threads
Optimize a model with 6007 rows, 4529 columns and 24534 nonzeros
Model fingerprint: 0x7ea6b05f
Variable types: 4506 continuous, 23 integer (23 binary)
Coefficient statistics:
  Matrix range     [1e+00, 1e+00]
  Objective range  [2e-03, 2e+00]
  Bounds range     [1e+00, 1e+00]
  RHS range        [1e+00, 2e+02]
Found heuristic solution: objective 277.1286563
Presolve removed 1520 rows and 1515 columns
Presolve time: 0.08s
Presolved: 4487 rows, 3014 columns, 21975 nonzeros
Variable types: 2994 continuous, 20 integer (20 binary)

Root relaxation: objective 2.911284e+02, 2809 iterations, 0.11 seconds (0.10 work units)

    Nodes    |    Current Node    |     Objective Bounds      |     Work
 Expl Unexpl |  Obj  Depth IntInf | Incumbent    BestBd   Gap | It/Node Time

     0     0  291.12841    0    2  277.12866  291.12841  5.05%     -    0s
     0     0  291.02317    0    2  277.12866  291.02317  5.01%     -    0s
H    0     0                     277.9335813  291.02317  4.71%     -    0s
     0     0  289.45048    0    2  277.93358  289.45048  4.14%     -    0s
     0     0  289.44030    0    2  277.93358  289.44030  4.14%     -    0s
     0     0  287.98369    0    3  277.93358  287.98369  3.62%     -    0s
     0     0  287.98369    0    3  277.93358  287.98369  3.62%     -    0s
     0     0  287.98369    0    3  277.93358  287.98369  3.62%     -    0s
     0     0  287.98369    0    3  277.93358  287.98369  3.62%     -    0s
     0     0  287.98298    0    3  277.93358  287.98298  3.62%     -    0s
     0     0  287.98298    0    3  277.93358  287.98298  3.62%     -    0s
     0     0  287.98298    0    3  277.93358  287.98298  3.62%     -    0s
     0     0  287.98298    0    3  277.93358  287.98298  3.62%     -    0s
     0     0  287.98298    0    3  277.93358  287.98298  3.62%     -    0s
     0     0  287.98298    0    3  277.93358  287.98298  3.62%     -    0s
H    0     0                     286.8410173  287.98298  0.40%     -    0s
     0     0  287.84244    0    2  286.84102  287.84244  0.35%     -    0s
H    0     0                     287.7241250  287.84244  0.04%     -    0s

Cutting planes:
  Gomory: 3
  MIR: 365
  Flow cover: 1
  RLT: 12
  Relax-and-lift: 17

Explored 1 nodes (4311 simplex iterations) in 0.80 seconds (0.61 work units)
Thread count was 20 (of 20 available processors)

Solution count 4: 287.724 286.841 277.934 277.129 

Optimal solution found (tolerance 1.00e-04)
Best objective 2.877241249641e+02, best bound 2.877241249641e+02, gap 0.0000%



#########node  1
V1.7
#########node  2
0.0,1.0
#########node  3
1.0,0.0


Total Solving Time 1.1909348964691162
obj value 287.7241249640914
Policy Regret train (Sum) 2.0340319405192426
Best Treatment Found train (%) 82.8
treatment classification acc train (%) 23.200000000000003
Policy Regret test (Sum) 23.056351074388168
Best Treatment Found test (%) 86.09
treatment classification acc test (%) 26.06
